Maximize
  0.00102465900735962 Z_565_0_0 + 2.1822474825364108e-04 Z_565_0_1
   + 0.0135612757424848 Z_565_0_2 + 0.6934334348347917 Z_565_0_3
   + 0.1917624056671103 Z_565_0_4 + 1.1029155958638609e-04 Z_742_0_0
   + 0.00170613481183699 Z_742_0_1 + 0.8581087755322251 Z_742_0_2
   + 0.00135483284736282 Z_742_0_3 + 0.0387199652489887 Z_742_0_4
   + 0.000929344 Z_207_1_0 + 4.9131182944981344e-04 Z_207_1_1
   + 0.8830094346998784 Z_207_1_2 + 0.00361562779197957 Z_207_1_3
   + 0.0119542817182325 Z_207_1_4 + 0.0146471952417677 Z_207_0_0
   + 0.0360084836733003 Z_207_0_1 + 0.00495841288390947 Z_207_0_2
   + 0.7421131030330508 Z_207_0_3 + 0.1022728051679718 Z_207_0_4
   + 4.0606575944844841e-04 Z_415_0_0 + 0.00577013923233231 Z_415_0_1
   + 0.3764088623974013 Z_415_0_2 + 0.00850243043005978 Z_415_0_3
   + 0.5089125021807581 Z_415_0_4 + 0.6704289974459469 Z_171_0_0
   + 0.0160730980226675 Z_171_0_1 + 0.0149060543515521 Z_171_0_2
   + 0.126250930398145 Z_171_0_3 + 0.0723409197816885 Z_171_0_4
   + 0.00149758943111276 Z_178_0_0 + 0.00221092178318218 Z_178_0_1
   + 0.0416834758777297 Z_178_0_2 + 0.0510158502015444 Z_178_0_3
   + 0.8035921627064309 Z_178_0_4 + 4.4159738455711169e-04 Z_257_9_0
   + 0.000510402 Z_257_9_1 + 0.5016172726700986 Z_257_9_2
   + 0.00148436 Z_257_9_3 + 0.3959463679859292 Z_257_9_4
   + 4.4159738455711169e-04 Z_257_0_0 + 0.000510402 Z_257_0_1
   + 0.5016172726700986 Z_257_0_2 + 0.00148436 Z_257_0_3
   + 0.3959463679859292 Z_257_0_4 + 0.6844215943545343 Z_257_2_0
   + 0.0230722167037071 Z_257_2_1 + 0.0159860344212791 Z_257_2_2
   + 0.0540658733536261 Z_257_2_3 + 0.1224542811668535 Z_257_2_4
   + 0.0723922340588491 Z_257_1_0 + 0.0540916765945254 Z_257_1_1
   + 0.00491850759867681 Z_257_1_2 + 0.5915674272065145 Z_257_1_3
   + 0.1770301545414341 Z_257_1_4 + 7.7637248664004131e-04 Z_641_0_0
   + 5.2174249287136986e-04 Z_641_0_1 + 0.0122833397004478 Z_641_0_2
   + 0.8434267626627736 Z_641_0_3 + 0.0429917826572672 Z_641_0_4
   + 0.0214767964328076 Z_176_0_0 + 0.00595509480375423 Z_176_0_1
   + 0.0128390451740197 Z_176_0_2 + 0.6797992409945224 Z_176_0_3
   + 0.1799298225948961 Z_176_0_4 + 0.000965977 Z_176_1_0
   + 4.8651264214181111e-04 Z_176_1_1 + 0.8488300983852962 Z_176_1_2
   + 0.00321065646781908 Z_176_1_3 + 0.0465067554807688 Z_176_1_4
   + 0.5835606292755554 Z_419_0_0 + 0.0417949965909376 Z_419_0_1
   + 0.00401597158464062 Z_419_0_2 + 0.2094024572836799 Z_419_0_3
   + 0.0612259452651864 Z_419_0_4 + 0.6806181405015459 Z_468_0_0
   + 0.0222047878415754 Z_468_0_1 + 0.0208244666850173 Z_468_0_2
   + 0.1258658355653724 Z_468_0_3 + 0.050486769406489 Z_468_0_4
   + 0.00106006717870205 Z_468_1_0 + 4.4608473493660481e-04 Z_468_1_1
   + 0.5437530875883563 Z_468_1_2 + 0.0029406333319456 Z_468_1_3
   + 0.3518001271660597 Z_468_1_4 + 0.6844215943545343 Z_477_0_0
   + 0.0230722167037071 Z_477_0_1 + 0.0159860344212791 Z_477_0_2
   + 0.0540658733536261 Z_477_0_3 + 0.1224542811668535 Z_477_0_4
   + 7.3573954586248977e-04 Z_477_1_0 + 4.5583232602549619e-04 Z_477_1_1
   + 0.4253276395596781 Z_477_1_2 + 0.00335823802154392 Z_477_1_3
   + 0.4701225505468901 Z_477_1_4 + 0.00473265107867046 Z_658_0_0
   + 0.8132657904432087 Z_658_0_1 + 0.00548761354105381 Z_658_0_2
   + 0.00305726721282974 Z_658_0_3 + 0.0734566777242373 Z_658_0_4
   + 0.5835606292755554 Z_114_0_0 + 0.0417949965909376 Z_114_0_1
   + 0.00401597158464062 Z_114_0_2 + 0.2094024572836799 Z_114_0_3
   + 0.0612259452651864 Z_114_0_4 + 0.00111054808810416 Z_114_1_0
   + 5.7806356097809956e-04 Z_114_1_1 + 0.6866149124310061 Z_114_1_2
   + 0.00180543937563018 Z_114_1_3 + 0.2098910365442816 Z_114_1_4
   + 3.9430368751777598e-04 Z_581_1_0 + 7.4216470661197099e-04 Z_581_1_1
   + 0.8705457625568043 Z_581_1_2 + 0.00145617703325697 Z_581_1_3
   + 0.026861592015809 Z_581_1_4 + 0.0252221713301509 Z_581_0_0
   + 0.0191692527964935 Z_581_0_1 + 0.0034260579344548 Z_581_0_2
   + 0.7557169255603909 Z_581_0_3 + 0.09646559237851 Z_581_0_4
   + 6.9098377027940552e-04 Z_97_0_0 + 0.00175222125057958 Z_97_0_1
   + 0.00101344302845294 Z_97_0_2 + 0.3371916956091567 Z_97_0_3
   + 0.5593516563415313 Z_97_0_4 + 0.5703910859710671 Z_732_0_0
   + 0.0721975302170235 Z_732_0_1 + 0.00146745021162936 Z_732_0_2
   + 0.0646534933493776 Z_732_0_3 + 0.1912904402509024 Z_732_0_4
   + 4.7047913786157675e-04 Z_732_1_0 + 6.6819174768830726e-04 Z_732_1_1
   + 0.7251535124553061 Z_732_1_2 + 0.000980118 Z_732_1_3
   + 0.1727276987295837 Z_732_1_4 + 0.6459199243779314 Z_674_0_0
   + 0.1270587252908192 Z_674_0_1 + 0.0140513543533426 Z_674_0_2
   + 0.0237088421528949 Z_674_0_3 + 0.0892611538250119 Z_674_0_4
   + 7.5120728229682659e-04 Z_674_1_0 + 4.6036061823135163e-04 Z_674_1_1
   + 0.4103402818850304 Z_674_1_2 + 0.00339710266123559 Z_674_1_3
   + 0.485051047553206 Z_674_1_4 + 0.000810301 Z_479_0_0
   + 8.9073242965682247e-04 Z_479_0_1 + 0.05207610893219 Z_479_0_2
   + 0.7323349651140798 Z_479_0_3 + 0.1138878925797446 Z_479_0_4
   + 0.000885185 Z_698_1_0 + 4.4847281728456712e-04 Z_698_1_1
   + 0.0198143536358984 Z_698_1_2 + 0.0222513369214068 Z_698_1_3
   + 0.8566006515662759 Z_698_1_4 + 0.00483923407500409 Z_698_3_0
   + 0.0338858306135614 Z_698_3_1 + 0.0209771563509268 Z_698_3_2
   + 0.4245021237863071 Z_698_3_3 + 0.4157956551742006 Z_698_3_4
   + 2.0070681492150372e-04 Z_698_0_0 + 4.5360542116446441e-04 Z_698_0_1
   + 8.8115256408009194e-04 Z_698_0_2 + 0.00627200833278008 Z_698_0_3
   + 0.892192526867054 Z_698_0_4 + 0.00483923407500409 Z_698_2_0
   + 0.0338858306135614 Z_698_2_1 + 0.0209771563509268 Z_698_2_2
   + 0.4245021237863071 Z_698_2_3 + 0.4157956551742006 Z_698_2_4
Subject To
 constraint1_5650: Z_565_0_0 + Z_565_0_1 + Z_565_0_2 + Z_565_0_3
   + Z_565_0_4 <= 1
 constraint1_7420: Z_742_0_0 + Z_742_0_1 + Z_742_0_2 + Z_742_0_3
   + Z_742_0_4 <= 1
 constraint1_2071: Z_207_1_0 + Z_207_1_1 + Z_207_1_2 + Z_207_1_3
   + Z_207_1_4 <= 1
 constraint1_2070: Z_207_0_0 + Z_207_0_1 + Z_207_0_2 + Z_207_0_3
   + Z_207_0_4 <= 1
 constraint1_4150: Z_415_0_0 + Z_415_0_1 + Z_415_0_2 + Z_415_0_3
   + Z_415_0_4 <= 1
 constraint1_1710: Z_171_0_0 + Z_171_0_1 + Z_171_0_2 + Z_171_0_3
   + Z_171_0_4 <= 1
 constraint1_1780: Z_178_0_0 + Z_178_0_1 + Z_178_0_2 + Z_178_0_3
   + Z_178_0_4 <= 1
 constraint1_2579: Z_257_9_0 + Z_257_9_1 + Z_257_9_2 + Z_257_9_3
   + Z_257_9_4 <= 1
 constraint1_2570: Z_257_0_0 + Z_257_0_1 + Z_257_0_2 + Z_257_0_3
   + Z_257_0_4 <= 1
 constraint1_2572: Z_257_2_0 + Z_257_2_1 + Z_257_2_2 + Z_257_2_3
   + Z_257_2_4 <= 1
 constraint1_2571: Z_257_1_0 + Z_257_1_1 + Z_257_1_2 + Z_257_1_3
   + Z_257_1_4 <= 1
 constraint1_6410: Z_641_0_0 + Z_641_0_1 + Z_641_0_2 + Z_641_0_3
   + Z_641_0_4 <= 1
 constraint1_1760: Z_176_0_0 + Z_176_0_1 + Z_176_0_2 + Z_176_0_3
   + Z_176_0_4 <= 1
 constraint1_1761: Z_176_1_0 + Z_176_1_1 + Z_176_1_2 + Z_176_1_3
   + Z_176_1_4 <= 1
 constraint1_4190: Z_419_0_0 + Z_419_0_1 + Z_419_0_2 + Z_419_0_3
   + Z_419_0_4 <= 1
 constraint1_4680: Z_468_0_0 + Z_468_0_1 + Z_468_0_2 + Z_468_0_3
   + Z_468_0_4 <= 1
 constraint1_4681: Z_468_1_0 + Z_468_1_1 + Z_468_1_2 + Z_468_1_3
   + Z_468_1_4 <= 1
 constraint1_4770: Z_477_0_0 + Z_477_0_1 + Z_477_0_2 + Z_477_0_3
   + Z_477_0_4 <= 1
 constraint1_4771: Z_477_1_0 + Z_477_1_1 + Z_477_1_2 + Z_477_1_3
   + Z_477_1_4 <= 1
 constraint1_6580: Z_658_0_0 + Z_658_0_1 + Z_658_0_2 + Z_658_0_3
   + Z_658_0_4 <= 1
 constraint1_1140: Z_114_0_0 + Z_114_0_1 + Z_114_0_2 + Z_114_0_3
   + Z_114_0_4 <= 1
 constraint1_1141: Z_114_1_0 + Z_114_1_1 + Z_114_1_2 + Z_114_1_3
   + Z_114_1_4 <= 1
 constraint1_5811: Z_581_1_0 + Z_581_1_1 + Z_581_1_2 + Z_581_1_3
   + Z_581_1_4 <= 1
 constraint1_5810: Z_581_0_0 + Z_581_0_1 + Z_581_0_2 + Z_581_0_3
   + Z_581_0_4 <= 1
 constraint1_970: Z_97_0_0 + Z_97_0_1 + Z_97_0_2 + Z_97_0_3 + Z_97_0_4
   <= 1
 constraint1_7320: Z_732_0_0 + Z_732_0_1 + Z_732_0_2 + Z_732_0_3
   + Z_732_0_4 <= 1
 constraint1_7321: Z_732_1_0 + Z_732_1_1 + Z_732_1_2 + Z_732_1_3
   + Z_732_1_4 <= 1
 constraint1_6740: Z_674_0_0 + Z_674_0_1 + Z_674_0_2 + Z_674_0_3
   + Z_674_0_4 <= 1
 constraint1_6741: Z_674_1_0 + Z_674_1_1 + Z_674_1_2 + Z_674_1_3
   + Z_674_1_4 <= 1
 constraint1_4790: Z_479_0_0 + Z_479_0_1 + Z_479_0_2 + Z_479_0_3
   + Z_479_0_4 <= 1
 constraint1_6981: Z_698_1_0 + Z_698_1_1 + Z_698_1_2 + Z_698_1_3
   + Z_698_1_4 <= 1
 constraint1_6983: Z_698_3_0 + Z_698_3_1 + Z_698_3_2 + Z_698_3_3
   + Z_698_3_4 <= 1
 constraint1_6980: Z_698_0_0 + Z_698_0_1 + Z_698_0_2 + Z_698_0_3
   + Z_698_0_4 <= 1
 constraint1_6982: Z_698_2_0 + Z_698_2_1 + Z_698_2_2 + Z_698_2_3
   + Z_698_2_4 <= 1
 constraint2_5650: Z_565_0_0 <= 1
 constraint2_5651: Z_565_0_1 <= 1
 constraint2_5652: Z_565_0_2 <= 1
 constraint2_5653: Z_565_0_3 <= 1
 constraint2_7420: Z_742_0_0 <= 1
 constraint2_7421: Z_742_0_1 <= 1
 constraint2_7422: Z_742_0_2 <= 1
 constraint2_7423: Z_742_0_3 <= 1
 constraint2_2070: Z_207_1_0 + Z_207_0_0 <= 1
 constraint2_2071: Z_207_1_1 + Z_207_0_1 <= 1
 constraint2_2072: Z_207_1_2 + Z_207_0_2 <= 1
 constraint2_2073: Z_207_1_3 + Z_207_0_3 <= 1
 constraint2_4150: Z_415_0_0 <= 1
 constraint2_4151: Z_415_0_1 <= 1
 constraint2_4152: Z_415_0_2 <= 1
 constraint2_4153: Z_415_0_3 <= 1
 constraint2_1710: Z_171_0_0 <= 1
 constraint2_1711: Z_171_0_1 <= 1
 constraint2_1712: Z_171_0_2 <= 1
 constraint2_1713: Z_171_0_3 <= 1
 constraint2_1780: Z_178_0_0 <= 1
 constraint2_1781: Z_178_0_1 <= 1
 constraint2_1782: Z_178_0_2 <= 1
 constraint2_1783: Z_178_0_3 <= 1
 constraint2_2570: Z_257_9_0 + Z_257_0_0 + Z_257_2_0 + Z_257_1_0 <= 1
 constraint2_2571: Z_257_9_1 + Z_257_0_1 + Z_257_2_1 + Z_257_1_1 <= 1
 constraint2_2572: Z_257_9_2 + Z_257_0_2 + Z_257_2_2 + Z_257_1_2 <= 1
 constraint2_2573: Z_257_9_3 + Z_257_0_3 + Z_257_2_3 + Z_257_1_3 <= 1
 constraint2_6410: Z_641_0_0 <= 1
 constraint2_6411: Z_641_0_1 <= 1
 constraint2_6412: Z_641_0_2 <= 1
 constraint2_6413: Z_641_0_3 <= 1
 constraint2_2220: <= 1
 constraint2_2221: <= 1
 constraint2_2222: <= 1
 constraint2_2223: <= 1
 constraint2_1760: Z_176_0_0 + Z_176_1_0 <= 1
 constraint2_1761: Z_176_0_1 + Z_176_1_1 <= 1
 constraint2_1762: Z_176_0_2 + Z_176_1_2 <= 1
 constraint2_1763: Z_176_0_3 + Z_176_1_3 <= 1
 constraint2_4190: Z_419_0_0 <= 1
 constraint2_4191: Z_419_0_1 <= 1
 constraint2_4192: Z_419_0_2 <= 1
 constraint2_4193: Z_419_0_3 <= 1
 constraint2_2250: <= 1
 constraint2_2251: <= 1
 constraint2_2252: <= 1
 constraint2_2253: <= 1
 constraint2_4680: Z_468_0_0 + Z_468_1_0 <= 1
 constraint2_4681: Z_468_0_1 + Z_468_1_1 <= 1
 constraint2_4682: Z_468_0_2 + Z_468_1_2 <= 1
 constraint2_4683: Z_468_0_3 + Z_468_1_3 <= 1
 constraint2_4770: Z_477_0_0 + Z_477_1_0 <= 1
 constraint2_4771: Z_477_0_1 + Z_477_1_1 <= 1
 constraint2_4772: Z_477_0_2 + Z_477_1_2 <= 1
 constraint2_4773: Z_477_0_3 + Z_477_1_3 <= 1
 constraint2_2110: <= 1
 constraint2_2111: <= 1
 constraint2_2112: <= 1
 constraint2_2113: <= 1
 constraint2_6580: Z_658_0_0 <= 1
 constraint2_6581: Z_658_0_1 <= 1
 constraint2_6582: Z_658_0_2 <= 1
 constraint2_6583: Z_658_0_3 <= 1
 constraint2_1140: Z_114_0_0 + Z_114_1_0 <= 1
 constraint2_1141: Z_114_0_1 + Z_114_1_1 <= 1
 constraint2_1142: Z_114_0_2 + Z_114_1_2 <= 1
 constraint2_1143: Z_114_0_3 + Z_114_1_3 <= 1
 constraint2_5810: Z_581_1_0 + Z_581_0_0 <= 1
 constraint2_5811: Z_581_1_1 + Z_581_0_1 <= 1
 constraint2_5812: Z_581_1_2 + Z_581_0_2 <= 1
 constraint2_5813: Z_581_1_3 + Z_581_0_3 <= 1
 constraint2_3750: <= 1
 constraint2_3751: <= 1
 constraint2_3752: <= 1
 constraint2_3753: <= 1
 constraint2_970: Z_97_0_0 <= 1
 constraint2_971: Z_97_0_1 <= 1
 constraint2_972: Z_97_0_2 <= 1
 constraint2_973: Z_97_0_3 <= 1
 constraint2_7320: Z_732_0_0 + Z_732_1_0 <= 1
 constraint2_7321: Z_732_0_1 + Z_732_1_1 <= 1
 constraint2_7322: Z_732_0_2 + Z_732_1_2 <= 1
 constraint2_7323: Z_732_0_3 + Z_732_1_3 <= 1
 constraint2_1680: <= 1
 constraint2_1681: <= 1
 constraint2_1682: <= 1
 constraint2_1683: <= 1
 constraint2_6740: Z_674_0_0 + Z_674_1_0 <= 1
 constraint2_6741: Z_674_0_1 + Z_674_1_1 <= 1
 constraint2_6742: Z_674_0_2 + Z_674_1_2 <= 1
 constraint2_6743: Z_674_0_3 + Z_674_1_3 <= 1
 constraint2_5720: <= 1
 constraint2_5721: <= 1
 constraint2_5722: <= 1
 constraint2_5723: <= 1
 constraint2_3530: <= 1
 constraint2_3531: <= 1
 constraint2_3532: <= 1
 constraint2_3533: <= 1
 constraint2_10: <= 1
 constraint2_11: <= 1
 constraint2_12: <= 1
 constraint2_13: <= 1
 constraint2_4790: Z_479_0_0 <= 1
 constraint2_4791: Z_479_0_1 <= 1
 constraint2_4792: Z_479_0_2 <= 1
 constraint2_4793: Z_479_0_3 <= 1
 constraint2_6980: Z_698_1_0 + Z_698_3_0 + Z_698_0_0 + Z_698_2_0 <= 1
 constraint2_6981: Z_698_1_1 + Z_698_3_1 + Z_698_0_1 + Z_698_2_1 <= 1
 constraint2_6982: Z_698_1_2 + Z_698_3_2 + Z_698_0_2 + Z_698_2_2 <= 1
 constraint2_6983: Z_698_1_3 + Z_698_3_3 + Z_698_0_3 + Z_698_2_3 <= 1
Bounds
Binaries
 Z_565_0_0 Z_565_0_1 Z_565_0_2 Z_565_0_3 Z_565_0_4 Z_742_0_0 Z_742_0_1
 Z_742_0_2 Z_742_0_3 Z_742_0_4 Z_207_1_0 Z_207_1_1 Z_207_1_2 Z_207_1_3
 Z_207_1_4 Z_207_0_0 Z_207_0_1 Z_207_0_2 Z_207_0_3 Z_207_0_4 Z_415_0_0
 Z_415_0_1 Z_415_0_2 Z_415_0_3 Z_415_0_4 Z_171_0_0 Z_171_0_1 Z_171_0_2
 Z_171_0_3 Z_171_0_4 Z_178_0_0 Z_178_0_1 Z_178_0_2 Z_178_0_3 Z_178_0_4
 Z_257_9_0 Z_257_9_1 Z_257_9_2 Z_257_9_3 Z_257_9_4 Z_257_0_0 Z_257_0_1
 Z_257_0_2 Z_257_0_3 Z_257_0_4 Z_257_2_0 Z_257_2_1 Z_257_2_2 Z_257_2_3
 Z_257_2_4 Z_257_1_0 Z_257_1_1 Z_257_1_2 Z_257_1_3 Z_257_1_4 Z_641_0_0
 Z_641_0_1 Z_641_0_2 Z_641_0_3 Z_641_0_4 Z_176_0_0 Z_176_0_1 Z_176_0_2
 Z_176_0_3 Z_176_0_4 Z_176_1_0 Z_176_1_1 Z_176_1_2 Z_176_1_3 Z_176_1_4
 Z_419_0_0 Z_419_0_1 Z_419_0_2 Z_419_0_3 Z_419_0_4 Z_468_0_0 Z_468_0_1
 Z_468_0_2 Z_468_0_3 Z_468_0_4 Z_468_1_0 Z_468_1_1 Z_468_1_2 Z_468_1_3
 Z_468_1_4 Z_477_0_0 Z_477_0_1 Z_477_0_2 Z_477_0_3 Z_477_0_4 Z_477_1_0
 Z_477_1_1 Z_477_1_2 Z_477_1_3 Z_477_1_4 Z_658_0_0 Z_658_0_1 Z_658_0_2
 Z_658_0_3 Z_658_0_4 Z_114_0_0 Z_114_0_1 Z_114_0_2 Z_114_0_3 Z_114_0_4
 Z_114_1_0 Z_114_1_1 Z_114_1_2 Z_114_1_3 Z_114_1_4 Z_581_1_0 Z_581_1_1
 Z_581_1_2 Z_581_1_3 Z_581_1_4 Z_581_0_0 Z_581_0_1 Z_581_0_2 Z_581_0_3
 Z_581_0_4 Z_97_0_0 Z_97_0_1 Z_97_0_2 Z_97_0_3 Z_97_0_4 Z_732_0_0 Z_732_0_1
 Z_732_0_2 Z_732_0_3 Z_732_0_4 Z_732_1_0 Z_732_1_1 Z_732_1_2 Z_732_1_3
 Z_732_1_4 Z_674_0_0 Z_674_0_1 Z_674_0_2 Z_674_0_3 Z_674_0_4 Z_674_1_0
 Z_674_1_1 Z_674_1_2 Z_674_1_3 Z_674_1_4 Z_479_0_0 Z_479_0_1 Z_479_0_2
 Z_479_0_3 Z_479_0_4 Z_698_1_0 Z_698_1_1 Z_698_1_2 Z_698_1_3 Z_698_1_4
 Z_698_3_0 Z_698_3_1 Z_698_3_2 Z_698_3_3 Z_698_3_4 Z_698_0_0 Z_698_0_1
 Z_698_0_2 Z_698_0_3 Z_698_0_4 Z_698_2_0 Z_698_2_1 Z_698_2_2 Z_698_2_3
 Z_698_2_4
End
